StudentsNr = 10;
InstructorsNr = 67;
DaysNr = 1;
SlotsPerDay = 60;
AvailabilitySlotsLenght = 60;
RoomNr = 1;
ProgrammNr = 1;
DegreeNr = 2;
RolesNr = 3;
CoursesNr = 7;
InstructorsProgramm = [{1}, {1}, {1}, {1}, {1}, {1}, {1}, {1}, {1}, {1}, {1}, {1}, {1}, {1}, {1}, {1}, {1}, {1}, {1}, {1}, {1}, {1}, {1}, {1}, {1}, {1}, {1}, {1}, {1}, {1}, {1}, {1}, {1}, {1}, {1}, {1}, {1}, {1}, {1}, {1}, {1}, {1}, {1}, {1}, {1}, {1}, {1}, {1}, {1}, {1}, {1}, {1}, {1}, {1}, {1}, {1}, {1}, {1}, {1}, {1}, {1}, {1}, {1}, {1}, {1}, {1}, {1}];
InstructorRolesPerProgramm = [|{1, 4, 6, 12, 14, 16, 17, 18, 20, 21, 24, 29, 34, 35, 36, 41, 42, 48, 51, 54, 55, 56, 57, 59, 66}, {4, 7, 13, 15, 16, 18, 19, 21, 22, 29, 30, 32, 33, 43, 44, 45, 49, 50, 53, 54, 55, 56, 59, 60, 61, 62, 64, 67}, {6, 10, 12, 13, 15, 22, 25, 26, 28, 34, 39, 43, 44, 52, 55, 59, 61, 62, 63, 64, 65, 66, 67}|];
InstructorsAvailability = [|0, |1, |1, |0, |1, |1, |0, |0, |1, |1, |0, |0, |1, |1, |1, |0, |0, |1, |0, |1, |0, |0, |0, |0, |1, |1, |1, |0, |0, |1, |1, |1, |1, |1, |1, |0, |1, |1, |1, |0, |1, |1, |1, |0, |0, |0, |1, |0, |0, |1, |1, |1, |0, |1, |0, |1, |1, |1, |1, |0, |1, |1, |1, |0, |0, |0, |0|];
StudentsProgramm = [1, 1, 1, 1, 1, 1, 1, 1, 1, 1];
StudentsDegree = [1, 2, 2, 2, 2, 2, 1, 1, 1, 2];
StudentsSupervisorId = [22, 5, 16, 27, 41, 50, 6, 47, 63, 37];
StudentsCourseIds = [{3}, {1, 2, 3, 4, 6}, {2, 3, 4, 5, 6}, {1, 3, 4, 6, 7}, {1, 2, 3, 4, 5}, {1, 2, 3, 4, 7}, {5}, {7}, {6}, {2, 3, 4, 5, 7}];
StudentsAvailability = [|0, |0, |0, |0, |0, |0, |1, |0, |0, |1|];
TheoryticalMinCard = [0, 0, 0, 0, 0, 0, 0, 1, 0, 0];
CoursesInstructorIds = [{2, 5, 6, 7, 8, 11, 12, 13, 14, 15, 17, 20, 21, 23, 25, 26, 27, 29, 30, 32, 36, 38, 39, 44, 45, 48, 49, 52, 55, 56, 57, 58, 60, 62, 65, 66, 67}, {1, 4, 5, 6, 10, 11, 12, 13, 14, 17, 18, 22, 27, 28, 30, 35, 40, 45, 47, 48, 49, 51, 58, 61, 65, 67}, {42, 46, 61, 66}, {11, 17, 25, 31, 32, 59, 60, 66}, {1, 2, 4, 8, 9, 10, 11, 12, 13, 14, 18, 19, 21, 24, 26, 27, 28, 29, 31, 34, 36, 38, 39, 42, 44, 46, 47, 48, 52, 55, 56, 57, 62, 66}, {1, 7, 8, 10, 12, 16, 17, 18, 19, 21, 22, 24, 25, 27, 28, 29, 30, 31, 32, 35, 36, 37, 38, 39, 40, 43, 49, 50, 52, 53, 55, 57, 58, 60, 61, 62, 63, 64, 65, 67}, {6, 9, 12, 14, 16, 17, 18, 23, 24, 25, 28, 33, 35, 37, 38, 42, 44, 48, 51, 53, 55, 62}];
RolesDemands = [19, 28, 9];
RolesContinuity = [3, 1];
ExamLen = [1, 1, 1, 1, 1, 1, 1, 1, 1, 1];
LunchTsMinLen = 0;
LunchStarts = [29..39];
SupervisorAvailable = 5;
OptimalLunchLenght = [1, 1];
OptimalStartTs = [0, 0];
OptimalFinishTs = [1, 60];
MinimizeRooms = 300;
RolesSoftContinuity = [|1, 2, 3|1, 4, 2|];
SameDegreeInRoom = 20;
Mergeability = 2;
